benchmarks/VRPTW/TSPTW/solution/n100w80.004.txt.solution
1 58 12 16 90 28 70 23 79 13 98 40 35 4 14 96 49 72 95 77 100 20 93 55 53 31 92 8 41 42 26 44 25 63 43 34 3 48 45 91 39 19 66 80 89 5 65 37 76 60 83 75 22 97 61 11 18 33 71 69 74 81 59 68 32 82 30 73 67 78 36 86 84 38 57 7 21 52 54 15 50 62 24 10 99 88 87 27 64 47 56 2 46 29 51 6 9 17 85 101 94 
702
